Minimize
  obj: 1.0000000000000000e+00 x3
Subject To
 C0 : 1.0000000000000000e+00 x0 + 1.0000000000000000e+00 x1 + 1.0000000000000000e+00 x2 + 1.0000000000000000e+00 x3 >= 1.0000000000000000e+00
 C1 : 1.0000000000000000e+00 x0 + 1.8228704408841814e+00 x1 + 3.3228566442492893e+00 x2 + 1.0000000000000000e+00 x3 >= 5.4858533967721335e-01
 C2 : 1.0000000000000000e+00 x0 + 4.8228807418254310e+00 x1 + 2.3260178649870611e+01 x2 + 1.0000000000000000e+00 x3 >= 2.0734495699379585e-01
 C3 : 1.0000000000000000e+00 x0 + 7.0000000000000000e+00 x1 + 4.9000000000000008e+01 x2 + 1.0000000000000000e+00 x3 >= 1.4285714285714288e-01
 C4 : -1.0000000000000000e+00 x0 - 1.0000000000000000e+00 x1 - 1.0000000000000000e+00 x2 + 1.0000000000000000e+00 x3 >= -1.0000000000000000e+00
 C5 : -1.0000000000000000e+00 x0 - 1.8228704408841814e+00 x1 - 3.3228566442492893e+00 x2 + 1.0000000000000000e+00 x3 >= -5.4858533967721334e-01
 C6 : -1.0000000000000000e+00 x0 - 4.8228807418254310e+00 x1 - 2.3260178649870611e+01 x2 + 1.0000000000000000e+00 x3 >= -2.0734495699379584e-01
 C7 : -1.0000000000000000e+00 x0 - 7.0000000000000000e+00 x1 - 4.9000000000000008e+01 x2 + 1.0000000000000000e+00 x3 >= -1.4285714285714287e-01
Bounds
  x0 free
  x1 free
  x2 free
  x3 free
End
